p cnf 680 1605              
-14 -13 -37 0
37 -39 0
13 14 -38 0
38 -39 0
39 -73 0
-16 -15 -40 0
40 -42 0
15 16 -41 0
41 -42 0
42 -73 0
-18 -17 -43 0
43 -45 0
17 18 -44 0
44 -45 0
45 -73 0
-20 -19 -46 0
46 -48 0
19 20 -47 0
47 -48 0
48 -73 0
-22 -21 -49 0
49 -51 0
21 22 -50 0
50 -51 0
51 -73 0
-24 -23 -52 0
52 -54 0
23 24 -53 0
53 -54 0
54 -73 0
-26 -25 -55 0
55 -57 0
25 26 -56 0
56 -57 0
57 -73 0
-28 -27 -58 0
58 -60 0
27 28 -59 0
59 -60 0
60 -73 0
-30 -29 -61 0
61 -63 0
29 30 -62 0
62 -63 0
63 -73 0
-32 -31 -64 0
64 -66 0
31 32 -65 0
65 -66 0
66 -73 0
-34 -33 -67 0
67 -69 0
33 34 -68 0
68 -69 0
69 -73 0
-36 -35 -70 0
70 -72 0
35 36 -71 0
71 -72 0
72 -73 0
73 -591 0
25 149 0
-31 149 0
-25 31 -149 0
26 150 0
-32 150 0
-26 32 -150 0
27 151 0
-33 151 0
-27 33 -151 0
28 152 0
-34 152 0
-28 34 -152 0
29 153 0
-35 153 0
-29 35 -153 0
30 154 0
-36 154 0
-30 36 -154 0
-149 -150 -151 -152 -153 -154 155 0
31 156 0
-25 156 0
32 157 0
-26 157 0
33 158 0
-27 158 0
34 159 0
-28 159 0
35 160 0
-29 160 0
36 161 0
-30 161 0
-156 -157 -158 -159 -160 -161 162 0
-155 -162 163 0
-163 -164 0
19 134 0
-31 134 0
20 135 0
-32 135 0
21 136 0
-33 136 0
22 137 0
-34 137 0
23 138 0
-35 138 0
24 139 0
-36 139 0
-134 -135 -136 -137 -138 -139 140 0
31 141 0
-19 141 0
32 142 0
-20 142 0
33 143 0
-21 143 0
34 144 0
-22 144 0
35 145 0
-23 145 0
36 146 0
-24 146 0
-141 -142 -143 -144 -145 -146 147 0
-140 -147 148 0
-148 -164 0
19 119 0
-25 119 0
-19 25 -119 0
20 120 0
-26 120 0
-20 26 -120 0
21 121 0
-27 121 0
-21 27 -121 0
22 122 0
-28 122 0
-22 28 -122 0
23 123 0
-29 123 0
-23 29 -123 0
24 124 0
-30 124 0
-24 30 -124 0
-119 -120 -121 -122 -123 -124 125 0
25 126 0
-19 126 0
26 127 0
-20 127 0
27 128 0
-21 128 0
28 129 0
-22 129 0
29 130 0
-23 130 0
30 131 0
-24 131 0
-126 -127 -128 -129 -130 -131 132 0
-125 -132 133 0
-133 -164 0
13 104 0
-31 104 0
14 105 0
-32 105 0
15 106 0
-33 106 0
16 107 0
-34 107 0
17 108 0
-35 108 0
18 109 0
-36 109 0
-104 -105 -106 -107 -108 -109 110 0
31 111 0
-13 111 0
32 112 0
-14 112 0
33 113 0
-15 113 0
34 114 0
-16 114 0
35 115 0
-17 115 0
36 116 0
-18 116 0
-111 -112 -113 -114 -115 -116 117 0
-110 -117 118 0
-118 -164 0
13 89 0
-25 89 0
14 90 0
-26 90 0
15 91 0
-27 91 0
16 92 0
-28 92 0
17 93 0
-29 93 0
18 94 0
-30 94 0
-89 -90 -91 -92 -93 -94 95 0
25 96 0
-13 96 0
26 97 0
-14 97 0
27 98 0
-15 98 0
28 99 0
-16 99 0
29 100 0
-17 100 0
30 101 0
-18 101 0
-96 -97 -98 -99 -100 -101 102 0
-95 -102 103 0
-103 -164 0
13 74 0
-19 74 0
-13 19 -74 0
14 75 0
-20 75 0
-14 20 -75 0
15 76 0
-21 76 0
-15 21 -76 0
16 77 0
-22 77 0
-16 22 -77 0
17 78 0
-23 78 0
-17 23 -78 0
18 79 0
-24 79 0
-18 24 -79 0
-74 -75 -76 -77 -78 -79 80 0
19 81 0
-13 81 0
20 82 0
-14 82 0
21 83 0
-15 83 0
22 84 0
-16 84 0
23 85 0
-17 85 0
24 86 0
-18 86 0
-81 -82 -83 -84 -85 -86 87 0
-80 -87 88 0
-88 -164 0
164 -591 0
-13 -165 0
14 -165 0
13 -14 165 0
-1 165 -166 0
1 -165 -166 0
165 -165 -166 0
166 -189 0
-15 -167 0
16 -167 0
15 -16 167 0
-2 167 -168 0
2 -167 -168 0
167 -167 -168 0
168 -189 0
-17 -169 0
18 -169 0
17 -18 169 0
-3 169 -170 0
3 -169 -170 0
169 -169 -170 0
170 -189 0
-19 -171 0
20 -171 0
19 -20 171 0
-4 171 -172 0
4 -171 -172 0
171 -171 -172 0
172 -189 0
-21 -173 0
22 -173 0
21 -22 173 0
-5 173 -174 0
5 -173 -174 0
173 -173 -174 0
174 -189 0
-23 -175 0
24 -175 0
23 -24 175 0
-6 175 -176 0
6 -175 -176 0
175 -175 -176 0
176 -189 0
-25 -177 0
26 -177 0
25 -26 177 0
-7 177 -178 0
7 -177 -178 0
177 -177 -178 0
178 -189 0
-27 -179 0
28 -179 0
27 -28 179 0
-8 179 -180 0
8 -179 -180 0
179 -179 -180 0
180 -189 0
-29 -181 0
30 -181 0
29 -30 181 0
-9 181 -182 0
9 -181 -182 0
181 -181 -182 0
182 -189 0
-31 -183 0
32 -183 0
31 -32 183 0
-10 183 -184 0
10 -183 -184 0
183 -183 -184 0
184 -189 0
-33 -185 0
34 -185 0
33 -34 185 0
-11 185 -186 0
11 -185 -186 0
185 -185 -186 0
186 -189 0
-35 -187 0
36 -187 0
35 -36 187 0
-12 187 -188 0
12 -187 -188 0
187 -187 -188 0
188 -189 0
189 -591 0
-18 -190 0
-16 -190 0
-14 -190 0
18 16 14 190 0
190 -192 0
13 -191 0
15 -191 0
17 -191 0
-13 -15 -17 191 0
191 -192 0
-190 -191 192 0
-192 202 0
-24 -193 0
-22 -193 0
-20 -193 0
24 22 20 193 0
193 -195 0
19 -194 0
21 -194 0
23 -194 0
-19 -21 -23 194 0
194 -195 0
-193 -194 195 0
-195 202 0
-30 -196 0
-28 -196 0
-26 -196 0
30 28 26 196 0
196 -198 0
25 -197 0
27 -197 0
29 -197 0
-25 -27 -29 197 0
197 -198 0
-196 -197 198 0
-198 202 0
-36 -199 0
-34 -199 0
-32 -199 0
36 34 32 199 0
199 -201 0
31 -200 0
33 -200 0
35 -200 0
-31 -33 -35 200 0
200 -201 0
-199 -200 201 0
-201 202 0
192 195 198 201 -202 0
202 -229 0
3 -205 0
192 -205 0
-3 -192 205 0
-205 217 0
6 -208 0
195 -208 0
-6 -195 208 0
-208 217 0
9 -211 0
198 -211 0
-9 -198 211 0
-211 217 0
12 -214 0
201 -214 0
-12 -201 214 0
-214 217 0
205 208 211 214 -217 0
217 -229 0
-202 -217 229 0
-217 -228 0
202 -228 0
217 -202 228 0
-229 -228 -230 0
230 -232 0
228 229 -231 0
231 -232 0
232 233 0
202 -224 0
2 -204 0
192 -204 0
-2 -192 204 0
-204 216 0
5 -207 0
195 -207 0
-5 -195 207 0
-207 216 0
8 -210 0
198 -210 0
-8 -198 210 0
-210 216 0
11 -213 0
201 -213 0
-11 -201 213 0
-213 216 0
204 207 210 213 -216 0
216 -224 0
-202 -216 224 0
-216 -223 0
202 -223 0
216 -202 223 0
-224 -223 -225 0
225 -227 0
223 224 -226 0
226 -227 0
227 233 0
202 -219 0
1 -203 0
192 -203 0
-1 -192 203 0
-203 215 0
4 -206 0
195 -206 0
-4 -195 206 0
-206 215 0
7 -209 0
198 -209 0
-7 -198 209 0
-209 215 0
10 -212 0
201 -212 0
-10 -201 212 0
-212 215 0
203 206 209 212 -215 0
215 -219 0
-202 -215 219 0
-215 -218 0
202 -218 0
215 -202 218 0
-219 -218 -220 0
220 -222 0
218 219 -221 0
221 -222 0
222 233 0
-233 -235 0
219 -235 0
-233 -237 0
224 -237 0
-233 -239 0
229 -239 0
-17 -240 0
-16 -240 0
-14 -240 0
17 16 14 240 0
240 -242 0
13 -241 0
15 -241 0
18 -241 0
-13 -15 -18 241 0
241 -242 0
-240 -241 242 0
-242 252 0
-23 -243 0
-22 -243 0
-20 -243 0
23 22 20 243 0
243 -245 0
19 -244 0
21 -244 0
24 -244 0
-19 -21 -24 244 0
244 -245 0
-243 -244 245 0
-245 252 0
-29 -246 0
-28 -246 0
-26 -246 0
29 28 26 246 0
246 -248 0
25 -247 0
27 -247 0
30 -247 0
-25 -27 -30 247 0
247 -248 0
-246 -247 248 0
-248 252 0
-35 -249 0
-34 -249 0
-32 -249 0
35 34 32 249 0
249 -251 0
31 -250 0
33 -250 0
36 -250 0
-31 -33 -36 250 0
250 -251 0
-249 -250 251 0
-251 252 0
242 245 248 251 -252 0
252 -279 0
3 -255 0
242 -255 0
-3 -242 255 0
-255 267 0
6 -258 0
245 -258 0
-6 -245 258 0
-258 267 0
9 -261 0
248 -261 0
-9 -248 261 0
-261 267 0
12 -264 0
251 -264 0
-12 -251 264 0
-264 267 0
255 258 261 264 -267 0
267 -279 0
-252 -267 279 0
-267 -278 0
252 -278 0
267 -252 278 0
-279 -278 -280 0
280 -282 0
278 279 -281 0
281 -282 0
282 283 0
252 -274 0
2 -254 0
242 -254 0
-2 -242 254 0
-254 266 0
5 -257 0
245 -257 0
-5 -245 257 0
-257 266 0
8 -260 0
248 -260 0
-8 -248 260 0
-260 266 0
11 -263 0
251 -263 0
-11 -251 263 0
-263 266 0
254 257 260 263 -266 0
266 -274 0
-252 -266 274 0
-266 -273 0
252 -273 0
266 -252 273 0
-274 -273 -275 0
275 -277 0
273 274 -276 0
276 -277 0
277 283 0
252 -269 0
1 -253 0
242 -253 0
-1 -242 253 0
-253 265 0
4 -256 0
245 -256 0
-4 -245 256 0
-256 265 0
7 -259 0
248 -259 0
-7 -248 259 0
-259 265 0
10 -262 0
251 -262 0
-10 -251 262 0
-262 265 0
253 256 259 262 -265 0
265 -269 0
-252 -265 269 0
-265 -268 0
252 -268 0
265 -252 268 0
-269 -268 -270 0
270 -272 0
268 269 -271 0
271 -272 0
272 283 0
-283 -285 0
269 -285 0
-283 -287 0
274 -287 0
-283 -288 0
278 -288 0
-18 -290 0
-15 -290 0
-14 -290 0
18 15 14 290 0
290 -292 0
13 -291 0
16 -291 0
17 -291 0
-13 -16 -17 291 0
291 -292 0
-290 -291 292 0
-292 302 0
-24 -293 0
-21 -293 0
-20 -293 0
24 21 20 293 0
293 -295 0
19 -294 0
22 -294 0
23 -294 0
-19 -22 -23 294 0
294 -295 0
-293 -294 295 0
-295 302 0
-30 -296 0
-27 -296 0
-26 -296 0
30 27 26 296 0
296 -298 0
25 -297 0
28 -297 0
29 -297 0
-25 -28 -29 297 0
297 -298 0
-296 -297 298 0
-298 302 0
-36 -299 0
-33 -299 0
-32 -299 0
36 33 32 299 0
299 -301 0
31 -300 0
34 -300 0
35 -300 0
-31 -34 -35 300 0
300 -301 0
-299 -300 301 0
-301 302 0
292 295 298 301 -302 0
302 -329 0
3 -305 0
292 -305 0
-3 -292 305 0
-305 317 0
6 -308 0
295 -308 0
-6 -295 308 0
-308 317 0
9 -311 0
298 -311 0
-9 -298 311 0
-311 317 0
12 -314 0
301 -314 0
-12 -301 314 0
-314 317 0
305 308 311 314 -317 0
317 -329 0
-302 -317 329 0
-317 -328 0
302 -328 0
317 -302 328 0
-329 -328 -330 0
330 -332 0
328 329 -331 0
331 -332 0
332 333 0
302 -324 0
2 -304 0
292 -304 0
-2 -292 304 0
-304 316 0
5 -307 0
295 -307 0
-5 -295 307 0
-307 316 0
8 -310 0
298 -310 0
-8 -298 310 0
-310 316 0
11 -313 0
301 -313 0
-11 -301 313 0
-313 316 0
304 307 310 313 -316 0
316 -324 0
-302 -316 324 0
-316 -323 0
302 -323 0
316 -302 323 0
-324 -323 -325 0
325 -327 0
323 324 -326 0
326 -327 0
327 333 0
302 -319 0
1 -303 0
292 -303 0
-1 -292 303 0
-303 315 0
4 -306 0
295 -306 0
-4 -295 306 0
-306 315 0
7 -309 0
298 -309 0
-7 -298 309 0
-309 315 0
10 -312 0
301 -312 0
-10 -301 312 0
-312 315 0
303 306 309 312 -315 0
315 -319 0
-302 -315 319 0
-315 -318 0
302 -318 0
315 -302 318 0
-319 -318 -320 0
320 -322 0
318 319 -321 0
321 -322 0
322 333 0
-333 -335 0
319 -335 0
-333 -336 0
323 -336 0
-333 -339 0
329 -339 0
-17 -340 0
-15 -340 0
-14 -340 0
17 15 14 340 0
340 -342 0
13 -341 0
16 -341 0
18 -341 0
-13 -16 -18 341 0
341 -342 0
-340 -341 342 0
-342 352 0
-23 -343 0
-21 -343 0
-20 -343 0
23 21 20 343 0
343 -345 0
19 -344 0
22 -344 0
24 -344 0
-19 -22 -24 344 0
344 -345 0
-343 -344 345 0
-345 352 0
-29 -346 0
-27 -346 0
-26 -346 0
29 27 26 346 0
346 -348 0
25 -347 0
28 -347 0
30 -347 0
-25 -28 -30 347 0
347 -348 0
-346 -347 348 0
-348 352 0
-35 -349 0
-33 -349 0
-32 -349 0
35 33 32 349 0
349 -351 0
31 -350 0
34 -350 0
36 -350 0
-31 -34 -36 350 0
350 -351 0
-349 -350 351 0
-351 352 0
342 345 348 351 -352 0
352 -379 0
3 -355 0
342 -355 0
-3 -342 355 0
-355 367 0
6 -358 0
345 -358 0
-6 -345 358 0
-358 367 0
9 -361 0
348 -361 0
-9 -348 361 0
-361 367 0
12 -364 0
351 -364 0
-12 -351 364 0
-364 367 0
355 358 361 364 -367 0
367 -379 0
-352 -367 379 0
-367 -378 0
352 -378 0
367 -352 378 0
-379 -378 -380 0
380 -382 0
378 379 -381 0
381 -382 0
382 383 0
352 -374 0
2 -354 0
342 -354 0
-2 -342 354 0
-354 366 0
5 -357 0
345 -357 0
-5 -345 357 0
-357 366 0
8 -360 0
348 -360 0
-8 -348 360 0
-360 366 0
11 -363 0
351 -363 0
-11 -351 363 0
-363 366 0
354 357 360 363 -366 0
366 -374 0
-352 -366 374 0
-366 -373 0
352 -373 0
366 -352 373 0
-374 -373 -375 0
375 -377 0
373 374 -376 0
376 -377 0
377 383 0
352 -369 0
1 -353 0
342 -353 0
-1 -342 353 0
-353 365 0
4 -356 0
345 -356 0
-4 -345 356 0
-356 365 0
7 -359 0
348 -359 0
-7 -348 359 0
-359 365 0
10 -362 0
351 -362 0
-10 -351 362 0
-362 365 0
353 356 359 362 -365 0
365 -369 0
-352 -365 369 0
-365 -368 0
352 -368 0
365 -352 368 0
-369 -368 -370 0
370 -372 0
368 369 -371 0
371 -372 0
372 383 0
-383 -385 0
369 -385 0
-383 -386 0
373 -386 0
-383 -388 0
378 -388 0
-18 -390 0
-16 -390 0
-13 -390 0
18 16 13 390 0
390 -392 0
14 -391 0
15 -391 0
17 -391 0
-14 -15 -17 391 0
391 -392 0
-390 -391 392 0
-392 402 0
-24 -393 0
-22 -393 0
-19 -393 0
24 22 19 393 0
393 -395 0
20 -394 0
21 -394 0
23 -394 0
-20 -21 -23 394 0
394 -395 0
-393 -394 395 0
-395 402 0
-30 -396 0
-28 -396 0
-25 -396 0
30 28 25 396 0
396 -398 0
26 -397 0
27 -397 0
29 -397 0
-26 -27 -29 397 0
397 -398 0
-396 -397 398 0
-398 402 0
-36 -399 0
-34 -399 0
-31 -399 0
36 34 31 399 0
399 -401 0
32 -400 0
33 -400 0
35 -400 0
-32 -33 -35 400 0
400 -401 0
-399 -400 401 0
-401 402 0
392 395 398 401 -402 0
402 -429 0
3 -405 0
392 -405 0
-3 -392 405 0
-405 417 0
6 -408 0
395 -408 0
-6 -395 408 0
-408 417 0
9 -411 0
398 -411 0
-9 -398 411 0
-411 417 0
12 -414 0
401 -414 0
-12 -401 414 0
-414 417 0
405 408 411 414 -417 0
417 -429 0
-402 -417 429 0
-417 -428 0
402 -428 0
417 -402 428 0
-429 -428 -430 0
430 -432 0
428 429 -431 0
431 -432 0
432 433 0
402 -424 0
2 -404 0
392 -404 0
-2 -392 404 0
-404 416 0
5 -407 0
395 -407 0
-5 -395 407 0
-407 416 0
8 -410 0
398 -410 0
-8 -398 410 0
-410 416 0
11 -413 0
401 -413 0
-11 -401 413 0
-413 416 0
404 407 410 413 -416 0
416 -424 0
-402 -416 424 0
-416 -423 0
402 -423 0
416 -402 423 0
-424 -423 -425 0
425 -427 0
423 424 -426 0
426 -427 0
427 433 0
402 -419 0
1 -403 0
392 -403 0
-1 -392 403 0
-403 415 0
4 -406 0
395 -406 0
-4 -395 406 0
-406 415 0
7 -409 0
398 -409 0
-7 -398 409 0
-409 415 0
10 -412 0
401 -412 0
-10 -401 412 0
-412 415 0
403 406 409 412 -415 0
415 -419 0
-402 -415 419 0
-415 -418 0
402 -418 0
415 -402 418 0
-419 -418 -420 0
420 -422 0
418 419 -421 0
421 -422 0
422 433 0
-433 -434 0
418 -434 0
-433 -437 0
424 -437 0
-433 -439 0
429 -439 0
-17 -440 0
-16 -440 0
-13 -440 0
17 16 13 440 0
440 -442 0
14 -441 0
15 -441 0
18 -441 0
-14 -15 -18 441 0
441 -442 0
-440 -441 442 0
-442 452 0
-23 -443 0
-22 -443 0
-19 -443 0
23 22 19 443 0
443 -445 0
20 -444 0
21 -444 0
24 -444 0
-20 -21 -24 444 0
444 -445 0
-443 -444 445 0
-445 452 0
-29 -446 0
-28 -446 0
-25 -446 0
29 28 25 446 0
446 -448 0
26 -447 0
27 -447 0
30 -447 0
-26 -27 -30 447 0
447 -448 0
-446 -447 448 0
-448 452 0
-35 -449 0
-34 -449 0
-31 -449 0
35 34 31 449 0
449 -451 0
32 -450 0
33 -450 0
36 -450 0
-32 -33 -36 450 0
450 -451 0
-449 -450 451 0
-451 452 0
442 445 448 451 -452 0
452 -479 0
3 -455 0
442 -455 0
-3 -442 455 0
-455 467 0
6 -458 0
445 -458 0
-6 -445 458 0
-458 467 0
9 -461 0
448 -461 0
-9 -448 461 0
-461 467 0
12 -464 0
451 -464 0
-12 -451 464 0
-464 467 0
455 458 461 464 -467 0
467 -479 0
-452 -467 479 0
-467 -478 0
452 -478 0
467 -452 478 0
-479 -478 -480 0
480 -482 0
478 479 -481 0
481 -482 0
482 483 0
452 -474 0
2 -454 0
442 -454 0
-2 -442 454 0
-454 466 0
5 -457 0
445 -457 0
-5 -445 457 0
-457 466 0
8 -460 0
448 -460 0
-8 -448 460 0
-460 466 0
11 -463 0
451 -463 0
-11 -451 463 0
-463 466 0
454 457 460 463 -466 0
466 -474 0
-452 -466 474 0
-466 -473 0
452 -473 0
466 -452 473 0
-474 -473 -475 0
475 -477 0
473 474 -476 0
476 -477 0
477 483 0
452 -469 0
1 -453 0
442 -453 0
-1 -442 453 0
-453 465 0
4 -456 0
445 -456 0
-4 -445 456 0
-456 465 0
7 -459 0
448 -459 0
-7 -448 459 0
-459 465 0
10 -462 0
451 -462 0
-10 -451 462 0
-462 465 0
453 456 459 462 -465 0
465 -469 0
-452 -465 469 0
-465 -468 0
452 -468 0
465 -452 468 0
-469 -468 -470 0
470 -472 0
468 469 -471 0
471 -472 0
472 483 0
-483 -484 0
468 -484 0
-483 -487 0
474 -487 0
-483 -488 0
478 -488 0
-18 -490 0
-15 -490 0
-13 -490 0
18 15 13 490 0
490 -492 0
14 -491 0
16 -491 0
17 -491 0
-14 -16 -17 491 0
491 -492 0
-490 -491 492 0
-492 502 0
-24 -493 0
-21 -493 0
-19 -493 0
24 21 19 493 0
493 -495 0
20 -494 0
22 -494 0
23 -494 0
-20 -22 -23 494 0
494 -495 0
-493 -494 495 0
-495 502 0
-30 -496 0
-27 -496 0
-25 -496 0
30 27 25 496 0
496 -498 0
26 -497 0
28 -497 0
29 -497 0
-26 -28 -29 497 0
497 -498 0
-496 -497 498 0
-498 502 0
-36 -499 0
-33 -499 0
-31 -499 0
36 33 31 499 0
499 -501 0
32 -500 0
34 -500 0
35 -500 0
-32 -34 -35 500 0
500 -501 0
-499 -500 501 0
-501 502 0
492 495 498 501 -502 0
502 -529 0
3 -505 0
492 -505 0
-3 -492 505 0
-505 517 0
6 -508 0
495 -508 0
-6 -495 508 0
-508 517 0
9 -511 0
498 -511 0
-9 -498 511 0
-511 517 0
12 -514 0
501 -514 0
-12 -501 514 0
-514 517 0
505 508 511 514 -517 0
517 -529 0
-502 -517 529 0
-517 -528 0
502 -528 0
517 -502 528 0
-529 -528 -530 0
530 -532 0
528 529 -531 0
531 -532 0
532 533 0
502 -524 0
2 -504 0
492 -504 0
-2 -492 504 0
-504 516 0
5 -507 0
495 -507 0
-5 -495 507 0
-507 516 0
8 -510 0
498 -510 0
-8 -498 510 0
-510 516 0
11 -513 0
501 -513 0
-11 -501 513 0
-513 516 0
504 507 510 513 -516 0
516 -524 0
-502 -516 524 0
-516 -523 0
502 -523 0
516 -502 523 0
-524 -523 -525 0
525 -527 0
523 524 -526 0
526 -527 0
527 533 0
502 -519 0
1 -503 0
492 -503 0
-1 -492 503 0
-503 515 0
4 -506 0
495 -506 0
-4 -495 506 0
-506 515 0
7 -509 0
498 -509 0
-7 -498 509 0
-509 515 0
10 -512 0
501 -512 0
-10 -501 512 0
-512 515 0
503 506 509 512 -515 0
515 -519 0
-502 -515 519 0
-515 -518 0
502 -518 0
515 -502 518 0
-519 -518 -520 0
520 -522 0
518 519 -521 0
521 -522 0
522 533 0
-533 -534 0
518 -534 0
-533 -536 0
523 -536 0
-533 -539 0
529 -539 0
-17 -540 0
-15 -540 0
-13 -540 0
17 15 13 540 0
540 -542 0
14 -541 0
16 -541 0
18 -541 0
-14 -16 -18 541 0
541 -542 0
-540 -541 542 0
-542 552 0
-23 -543 0
-21 -543 0
-19 -543 0
23 21 19 543 0
543 -545 0
20 -544 0
22 -544 0
24 -544 0
-20 -22 -24 544 0
544 -545 0
-543 -544 545 0
-545 552 0
-29 -546 0
-27 -546 0
-25 -546 0
29 27 25 546 0
546 -548 0
26 -547 0
28 -547 0
30 -547 0
-26 -28 -30 547 0
547 -548 0
-546 -547 548 0
-548 552 0
-35 -549 0
-33 -549 0
-31 -549 0
35 33 31 549 0
549 -551 0
32 -550 0
34 -550 0
36 -550 0
-32 -34 -36 550 0
550 -551 0
-549 -550 551 0
-551 552 0
542 545 548 551 -552 0
552 -579 0
3 -555 0
542 -555 0
-3 -542 555 0
-555 567 0
6 -558 0
545 -558 0
-6 -545 558 0
-558 567 0
9 -561 0
548 -561 0
-9 -548 561 0
-561 567 0
12 -564 0
551 -564 0
-12 -551 564 0
-564 567 0
555 558 561 564 -567 0
567 -579 0
-552 -567 579 0
-567 -578 0
552 -578 0
567 -552 578 0
-579 -578 -580 0
580 -582 0
578 579 -581 0
581 -582 0
582 583 0
552 -574 0
2 -554 0
542 -554 0
-2 -542 554 0
-554 566 0
5 -557 0
545 -557 0
-5 -545 557 0
-557 566 0
8 -560 0
548 -560 0
-8 -548 560 0
-560 566 0
11 -563 0
551 -563 0
-11 -551 563 0
-563 566 0
554 557 560 563 -566 0
566 -574 0
-552 -566 574 0
-566 -573 0
552 -573 0
566 -552 573 0
-574 -573 -575 0
575 -577 0
573 574 -576 0
576 -577 0
577 583 0
552 -569 0
1 -553 0
542 -553 0
-1 -542 553 0
-553 565 0
4 -556 0
545 -556 0
-4 -545 556 0
-556 565 0
7 -559 0
548 -559 0
-7 -548 559 0
-559 565 0
10 -562 0
551 -562 0
-10 -551 562 0
-562 565 0
553 556 559 562 -565 0
565 -569 0
-552 -565 569 0
-565 -568 0
552 -568 0
565 -552 568 0
-569 -568 -570 0
570 -572 0
568 569 -571 0
571 -572 0
572 583 0
-583 -584 0
568 -584 0
-583 -586 0
573 -586 0
-583 -588 0
578 -588 0
235 237 239 285 287 288 335 336 339 385 386 388 434 437 439 484 487 488 534 536 539 584 586 588 -590 0
590 -591 0
-1 4 -592 0
592 -620 0
-1 -4 593 0
1 4 593 0
-4 4 593 0
-2 5 -594 0
-593 594 -595 0
595 -620 0
-2 -5 596 0
2 5 596 0
-5 5 596 0
-593 -596 597 0
-3 6 -598 0
-597 598 -599 0
599 -620 0
-3 -6 600 0
3 6 600 0
-6 6 600 0
-597 -600 601 0
-601 74 -602 0
602 -620 0
-13 -19 603 0
13 19 603 0
-19 19 603 0
-601 -603 604 0
-604 75 -605 0
605 -620 0
-14 -20 606 0
14 20 606 0
-20 20 606 0
-604 -606 607 0
-607 76 -608 0
608 -620 0
-15 -21 609 0
15 21 609 0
-21 21 609 0
-607 -609 610 0
-610 77 -611 0
611 -620 0
-16 -22 612 0
16 22 612 0
-22 22 612 0
-610 -612 613 0
-613 78 -614 0
614 -620 0
-17 -23 615 0
17 23 615 0
-23 23 615 0
-613 -615 616 0
-616 79 -617 0
617 -620 0
620 -679 0
-4 7 -621 0
621 -649 0
-4 -7 622 0
4 7 622 0
-7 7 622 0
-5 8 -623 0
-622 623 -624 0
624 -649 0
-5 -8 625 0
5 8 625 0
-8 8 625 0
-622 -625 626 0
-6 9 -627 0
-626 627 -628 0
628 -649 0
-6 -9 629 0
6 9 629 0
-9 9 629 0
-626 -629 630 0
-630 119 -631 0
631 -649 0
-19 -25 632 0
19 25 632 0
-25 25 632 0
-630 -632 633 0
-633 120 -634 0
634 -649 0
-20 -26 635 0
20 26 635 0
-26 26 635 0
-633 -635 636 0
-636 121 -637 0
637 -649 0
-21 -27 638 0
21 27 638 0
-27 27 638 0
-636 -638 639 0
-639 122 -640 0
640 -649 0
-22 -28 641 0
22 28 641 0
-28 28 641 0
-639 -641 642 0
-642 123 -643 0
643 -649 0
-23 -29 644 0
23 29 644 0
-29 29 644 0
-642 -644 645 0
-645 124 -646 0
646 -649 0
649 -679 0
-7 10 -650 0
650 -678 0
-7 -10 651 0
7 10 651 0
-10 10 651 0
-8 11 -652 0
-651 652 -653 0
653 -678 0
-8 -11 654 0
8 11 654 0
-11 11 654 0
-651 -654 655 0
-9 12 -656 0
-655 656 -657 0
657 -678 0
-9 -12 658 0
9 12 658 0
-12 12 658 0
-655 -658 659 0
-659 149 -660 0
660 -678 0
-25 -31 661 0
25 31 661 0
-31 31 661 0
-659 -661 662 0
-662 150 -663 0
663 -678 0
-26 -32 664 0
26 32 664 0
-32 32 664 0
-662 -664 665 0
-665 151 -666 0
666 -678 0
-27 -33 667 0
27 33 667 0
-33 33 667 0
-665 -667 668 0
-668 152 -669 0
669 -678 0
-28 -34 670 0
28 34 670 0
-34 34 670 0
-668 -670 671 0
-671 153 -672 0
672 -678 0
-29 -35 673 0
29 35 673 0
-35 35 673 0
-671 -673 674 0
-674 154 -675 0
675 -678 0
678 -679 0
591 0
679 0
